n_nodes = 738;
M = 6701;
n_domains = 18;
domain_link_weights = [|0,6701,6701,358,6701,6701,6701,6701,6701,6701,6701,6701,6701,6701,6701,6701,6701,6701|6701,0,6701,6701,6701,479,344,264,6701,6701,6701,6701,6701,6701,6701,6701,6701,6701|6701,6701,0,6701,6701,6701,6701,6701,6701,972,6701,6701,6701,6701,1788,6701,6701,6701|6701,6701,6701,0,6701,6701,6701,6701,6701,6701,6701,6701,6701,6701,6701,6701,6701,6701|6701,6701,6701,6701,0,364,358,173,6701,6701,6701,6701,6701,6701,6701,6701,6701,6223|6701,6701,6701,6701,6701,0,6701,6701,6701,6701,6701,6701,6701,6701,6701,6701,6701,6701|6701,6701,6701,6701,6701,6701,0,6701,5585,6701,6701,6701,6701,6701,6701,6701,6701,6701|6701,6701,6701,6701,6701,6701,6701,0,6701,6701,6701,6701,6701,6701,6701,6701,6701,6701|6701,6701,6701,6701,6701,6701,6701,6701,0,6701,6701,6701,6701,6701,6701,1148,556,350|6701,6701,6701,6701,6701,6701,6701,6701,6701,0,6701,6701,6701,2562,6701,943,6701,852|6701,6701,6701,6701,6701,6701,6701,6701,6701,6701,0,1141,6701,6701,6701,2795,6701,6701|6701,6701,6701,6701,6701,6701,6701,6701,6701,6701,6701,0,492,6701,6701,2963,6701,3855|6701,6701,6701,6701,6701,6701,6701,6701,6701,6701,6701,6701,0,575,1995,2807,6701,6701|6701,6701,6701,6701,6701,6701,6701,6701,6701,6701,6701,6701,6701,0,1425,6701,6701,6701|6701,6701,6701,6701,6701,6701,6701,6701,6701,6701,6701,6701,6701,6701,0,1291,6701,1872|6701,6701,6701,6701,6701,6701,6701,6701,6701,6701,6701,6701,6701,6701,6701,0,704,916|6701,6701,6701,6701,6701,6701,6701,6701,6701,6701,6701,6701,6701,6701,6701,6701,0,6701|6701,6701,6701,6701,6701,6701,6701,6701,6701,6701,6701,6701,6701,6701,6701,6701,6701,0|];
num_node_links = 1471;
node_links = [|1,3|1,4|2,6|2,7|2,8|3,10|3,15|5,6|5,7|5,8|5,18|7,9|9,16|9,17|9,18|10,14|10,16|10,18|11,12|11,16|12,13|12,16|12,18|13,14|13,15|13,16|14,15|15,16|15,18|16,17|16,18|1,19|19,1|1,51|51,1|1,65|65,1|1,66|66,1|1,116|116,1|1,118|118,1|1,120|120,1|1,140|140,1|1,168|168,1|1,176|176,1|1,212|212,1|1,230|230,1|1,237|237,1|1,244|244,1|1,246|246,1|1,295|295,1|1,303|303,1|1,304|304,1|1,308|308,1|1,310|310,1|1,348|348,1|1,359|359,1|1,482|482,1|1,513|513,1|1,521|521,1|1,527|527,1|1,535|535,1|1,536|536,1|1,586|586,1|1,588|588,1|1,589|589,1|1,590|590,1|1,592|592,1|1,601|601,1|1,609|609,1|1,644|644,1|1,667|667,1|1,672|672,1|1,688|688,1|1,715|715,1|2,20|20,2|2,98|98,2|2,127|127,2|2,129|129,2|2,131|131,2|2,195|195,2|2,199|199,2|2,205|205,2|2,228|228,2|2,296|296,2|2,302|302,2|2,321|321,2|2,335|335,2|2,338|338,2|2,342|342,2|2,357|357,2|2,378|378,2|2,383|383,2|2,427|427,2|2,428|428,2|2,431|431,2|2,453|453,2|2,492|492,2|2,516|516,2|2,539|539,2|2,554|554,2|2,559|559,2|2,563|563,2|2,571|571,2|2,603|603,2|2,614|614,2|2,651|651,2|2,678|678,2|2,689|689,2|2,703|703,2|2,707|707,2|2,711|711,2|2,712|712,2|2,716|716,2|2,738|738,2|3,21|21,3|3,42|42,3|3,44|44,3|3,57|57,3|3,68|68,3|3,89|89,3|3,133|133,3|3,136|136,3|3,175|175,3|3,188|188,3|3,197|197,3|3,207|207,3|3,211|211,3|3,216|216,3|3,218|218,3|3,234|234,3|3,243|243,3|3,266|266,3|3,270|270,3|3,279|279,3|3,280|280,3|3,298|298,3|3,333|333,3|3,346|346,3|3,364|364,3|3,374|374,3|3,418|418,3|3,452|452,3|3,507|507,3|3,523|523,3|3,524|524,3|3,550|550,3|3,562|562,3|3,578|578,3|3,649|649,3|3,654|654,3|3,663|663,3|3,665|665,3|3,675|675,3|3,720|720,3|4,22|22,4|4,46|46,4|4,107|107,4|4,124|124,4|4,130|130,4|4,139|139,4|4,145|145,4|4,154|154,4|4,155|155,4|4,163|163,4|4,183|183,4|4,184|184,4|4,204|204,4|4,253|253,4|4,262|262,4|4,311|311,4|4,322|322,4|4,327|327,4|4,354|354,4|4,358|358,4|4,363|363,4|4,368|368,4|4,410|410,4|4,417|417,4|4,423|423,4|4,450|450,4|4,479|479,4|4,486|486,4|4,520|520,4|4,530|530,4|4,565|565,4|4,585|585,4|4,634|634,4|4,642|642,4|4,647|647,4|4,650|650,4|4,657|657,4|4,661|661,4|4,666|666,4|4,709|709,4|5,23|23,5|5,39|39,5|5,47|47,5|5,55|55,5|5,75|75,5|5,76|76,5|5,91|91,5|5,96|96,5|5,104|104,5|5,113|113,5|5,122|122,5|5,143|143,5|5,150|150,5|5,160|160,5|5,173|173,5|5,186|186,5|5,242|242,5|5,273|273,5|5,319|319,5|5,329|329,5|5,334|334,5|5,336|336,5|5,340|340,5|5,394|394,5|5,400|400,5|5,426|426,5|5,454|454,5|5,506|506,5|5,525|525,5|5,538|538,5|5,552|552,5|5,593|593,5|5,596|596,5|5,602|602,5|5,612|612,5|5,617|617,5|5,638|638,5|5,682|682,5|5,700|700,5|5,724|724,5|6,24|24,6|6,40|40,6|6,78|78,6|6,90|90,6|6,101|101,6|6,105|105,6|6,111|111,6|6,128|128,6|6,162|162,6|6,170|170,6|6,202|202,6|6,224|224,6|6,229|229,6|6,251|251,6|6,256|256,6|6,274|274,6|6,307|307,6|6,314|314,6|6,316|316,6|6,405|405,6|6,433|433,6|6,487|487,6|6,488|488,6|6,499|499,6|6,504|504,6|6,526|526,6|6,545|545,6|6,566|566,6|6,568|568,6|6,573|573,6|6,584|584,6|6,625|625,6|6,636|636,6|6,639|639,6|6,669|669,6|6,673|673,6|6,681|681,6|6,710|710,6|6,722|722,6|6,730|730,6|7,25|25,7|7,49|49,7|7,72|72,7|7,77|77,7|7,159|159,7|7,164|164,7|7,241|241,7|7,248|248,7|7,259|259,7|7,269|269,7|7,275|275,7|7,283|283,7|7,294|294,7|7,309|309,7|7,324|324,7|7,365|365,7|7,424|424,7|7,435|435,7|7,436|436,7|7,437|437,7|7,438|438,7|7,442|442,7|7,470|470,7|7,475|475,7|7,480|480,7|7,503|503,7|7,512|512,7|7,531|531,7|7,555|555,7|7,558|558,7|7,577|577,7|7,610|610,7|7,613|613,7|7,629|629,7|7,632|632,7|7,655|655,7|7,674|674,7|7,684|684,7|7,686|686,7|7,696|696,7|8,26|26,8|8,54|54,8|8,70|70,8|8,73|73,8|8,84|84,8|8,92|92,8|8,97|97,8|8,112|112,8|8,138|138,8|8,177|177,8|8,185|185,8|8,206|206,8|8,264|264,8|8,293|293,8|8,300|300,8|8,306|306,8|8,330|330,8|8,382|382,8|8,386|386,8|8,395|395,8|8,397|397,8|8,398|398,8|8,422|422,8|8,448|448,8|8,449|449,8|8,461|461,8|8,472|472,8|8,502|502,8|8,522|522,8|8,537|537,8|8,569|569,8|8,575|575,8|8,582|582,8|8,616|616,8|8,627|627,8|8,656|656,8|8,660|660,8|8,677|677,8|8,704|704,8|8,723|723,8|9,27|27,9|9,38|38,9|9,74|74,9|9,93|93,9|9,134|134,9|9,144|144,9|9,194|194,9|9,196|196,9|9,227|227,9|9,278|278,9|9,284|284,9|9,288|288,9|9,299|299,9|9,305|305,9|9,337|337,9|9,352|352,9|9,360|360,9|9,361|361,9|9,388|388,9|9,392|392,9|9,399|399,9|9,407|407,9|9,415|415,9|9,451|451,9|9,460|460,9|9,465|465,9|9,476|476,9|9,477|477,9|9,483|483,9|9,505|505,9|9,618|618,9|9,623|623,9|9,626|626,9|9,670|670,9|9,699|699,9|9,705|705,9|9,726|726,9|9,727|727,9|9,734|734,9|9,736|736,9|10,28|28,10|10,59|59,10|10,79|79,10|10,158|158,10|10,189|189,10|10,213|213,10|10,222|222,10|10,249|249,10|10,260|260,10|10,263|263,10|10,286|286,10|10,323|323,10|10,326|326,10|10,345|345,10|10,380|380,10|10,403|403,10|10,412|412,10|10,416|416,10|10,419|419,10|10,421|421,10|10,430|430,10|10,441|441,10|10,444|444,10|10,446|446,10|10,510|510,10|10,515|515,10|10,532|532,10|10,546|546,10|10,567|567,10|10,572|572,10|10,576|576,10|10,580|580,10|10,615|615,10|10,621|621,10|10,646|646,10|10,668|668,10|10,679|679,10|10,693|693,10|10,719|719,10|10,735|735,10|11,29|29,11|11,48|48,11|11,61|61,11|11,69|69,11|11,81|81,11|11,85|85,11|11,99|99,11|11,117|117,11|11,126|126,11|11,172|172,11|11,179|179,11|11,190|190,11|11,191|191,11|11,226|226,11|11,235|235,11|11,238|238,11|11,250|250,11|11,254|254,11|11,257|257,11|11,282|282,11|11,344|344,11|11,404|404,11|11,409|409,11|11,413|413,11|11,440|440,11|11,462|462,11|11,469|469,11|11,474|474,11|11,509|509,11|11,542|542,11|11,543|543,11|11,604|604,11|11,607|607,11|11,620|620,11|11,653|653,11|11,680|680,11|11,687|687,11|11,721|721,11|11,725|725,11|11,733|733,11|12,30|30,12|12,37|37,12|12,53|53,12|12,56|56,12|12,58|58,12|12,82|82,12|12,87|87,12|12,109|109,12|12,115|115,12|12,125|125,12|12,142|142,12|12,146|146,12|12,167|167,12|12,208|208,12|12,209|209,12|12,214|214,12|12,217|217,12|12,220|220,12|12,255|255,12|12,285|285,12|12,318|318,12|12,339|339,12|12,353|353,12|12,356|356,12|12,366|366,12|12,390|390,12|12,432|432,12|12,574|574,12|12,579|579,12|12,608|608,12|12,611|611,12|12,624|624,12|12,630|630,12|12,645|645,12|12,648|648,12|12,664|664,12|12,676|676,12|12,706|706,12|12,714|714,12|12,737|737,12|13,31|31,13|13,45|45,13|13,50|50,13|13,52|52,13|13,67|67,13|13,151|151,13|13,171|171,13|13,187|187,13|13,203|203,13|13,221|221,13|13,223|223,13|13,233|233,13|13,245|245,13|13,277|277,13|13,290|290,13|13,291|291,13|13,292|292,13|13,341|341,13|13,349|349,13|13,351|351,13|13,384|384,13|13,393|393,13|13,429|429,13|13,464|464,13|13,466|466,13|13,501|501,13|13,508|508,13|13,519|519,13|13,533|533,13|13,556|556,13|13,605|605,13|13,606|606,13|13,619|619,13|13,635|635,13|13,641|641,13|13,643|643,13|13,683|683,13|13,692|692,13|13,718|718,13|13,729|729,13|14,32|32,14|14,83|83,14|14,100|100,14|14,149|149,14|14,165|165,14|14,182|182,14|14,193|193,14|14,219|219,14|14,232|232,14|14,239|239,14|14,247|247,14|14,272|272,14|14,289|289,14|14,312|312,14|14,331|331,14|14,332|332,14|14,347|347,14|14,350|350,14|14,355|355,14|14,373|373,14|14,381|381,14|14,396|396,14|14,420|420,14|14,443|443,14|14,457|457,14|14,458|458,14|14,496|496,14|14,497|497,14|14,514|514,14|14,518|518,14|14,549|549,14|14,561|561,14|14,570|570,14|14,591|591,14|14,599|599,14|14,659|659,14|14,662|662,14|14,685|685,14|14,694|694,14|14,698|698,14|15,33|33,15|15,80|80,15|15,88|88,15|15,108|108,15|15,121|121,15|15,137|137,15|15,147|147,15|15,148|148,15|15,166|166,15|15,180|180,15|15,198|198,15|15,225|225,15|15,236|236,15|15,252|252,15|15,265|265,15|15,271|271,15|15,367|367,15|15,375|375,15|15,389|389,15|15,402|402,15|15,406|406,15|15,447|447,15|15,463|463,15|15,478|478,15|15,493|493,15|15,495|495,15|15,498|498,15|15,529|529,15|15,544|544,15|15,553|553,15|15,557|557,15|15,583|583,15|15,598|598,15|15,622|622,15|15,640|640,15|15,658|658,15|15,701|701,15|15,717|717,15|15,731|731,15|15,732|732,15|16,34|34,16|16,71|71,16|16,94|94,16|16,103|103,16|16,110|110,16|16,123|123,16|16,132|132,16|16,135|135,16|16,141|141,16|16,157|157,16|16,200|200,16|16,210|210,16|16,231|231,16|16,261|261,16|16,268|268,16|16,315|315,16|16,317|317,16|16,328|328,16|16,362|362,16|16,371|371,16|16,376|376,16|16,387|387,16|16,391|391,16|16,408|408,16|16,411|411,16|16,425|425,16|16,456|456,16|16,467|467,16|16,485|485,16|16,490|490,16|16,491|491,16|16,494|494,16|16,511|511,16|16,517|517,16|16,540|540,16|16,564|564,16|16,581|581,16|16,597|597,16|16,695|695,16|16,697|697,16|17,35|35,17|17,43|43,17|17,60|60,17|17,62|62,17|17,156|156,17|17,169|169,17|17,192|192,17|17,201|201,17|17,267|267,17|17,276|276,17|17,281|281,17|17,287|287,17|17,297|297,17|17,320|320,17|17,343|343,17|17,377|377,17|17,401|401,17|17,414|414,17|17,445|445,17|17,455|455,17|17,471|471,17|17,473|473,17|17,484|484,17|17,489|489,17|17,500|500,17|17,528|528,17|17,534|534,17|17,541|541,17|17,548|548,17|17,560|560,17|17,594|594,17|17,600|600,17|17,633|633,17|17,637|637,17|17,652|652,17|17,690|690,17|17,702|702,17|17,708|708,17|17,713|713,17|17,728|728,17|18,36|36,18|18,41|41,18|18,63|63,18|18,64|64,18|18,86|86,18|18,95|95,18|18,102|102,18|18,106|106,18|18,114|114,18|18,119|119,18|18,152|152,18|18,153|153,18|18,161|161,18|18,174|174,18|18,178|178,18|18,181|181,18|18,215|215,18|18,240|240,18|18,258|258,18|18,301|301,18|18,313|313,18|18,325|325,18|18,369|369,18|18,370|370,18|18,372|372,18|18,379|379,18|18,385|385,18|18,434|434,18|18,439|439,18|18,459|459,18|18,468|468,18|18,481|481,18|18,547|547,18|18,551|551,18|18,587|587,18|18,595|595,18|18,628|628,18|18,631|631,18|18,671|671,18|18,691|691,18|];
nodes = [|1,9,0,0,0,0,1,1|2,9,0,0,0,0,1,2|3,9,0,0,0,0,1,3|4,9,0,0,0,0,1,4|5,9,0,0,0,0,1,5|6,9,0,0,0,0,1,6|7,9,0,0,0,0,1,7|8,9,0,0,0,0,1,8|9,9,0,0,0,0,1,9|10,9,0,0,0,0,1,10|11,9,0,0,0,0,1,11|12,9,0,0,0,0,1,12|13,9,0,0,0,0,1,13|14,9,0,0,0,0,1,14|15,9,0,0,0,0,1,15|16,9,0,0,0,0,1,16|17,9,0,0,0,0,1,17|18,9,0,0,0,0,1,18|19,10,0,0,0,0,1,1|20,10,0,0,0,0,1,2|21,10,0,0,0,0,1,3|22,10,0,0,0,0,1,4|23,10,0,0,0,0,1,5|24,10,0,0,0,0,1,6|25,10,0,0,0,0,1,7|26,10,0,0,0,0,1,8|27,10,0,0,0,0,1,9|28,10,0,0,0,0,1,10|29,10,0,0,0,0,1,11|30,10,0,0,0,0,1,12|31,10,0,0,0,0,1,13|32,10,0,0,0,0,1,14|33,10,0,0,0,0,1,15|34,10,0,0,0,0,1,16|35,10,0,0,0,0,1,17|36,10,0,0,0,0,1,18|37,3,0,0,0,0,1,12|38,5,0,0,0,0,1,9|39,5,0,0,0,0,1,5|40,3,0,0,0,0,1,6|41,3,0,0,0,0,1,18|42,2,0,0,0,0,1,3|43,3,0,0,0,0,1,17|44,4,0,0,0,0,1,3|45,2,0,0,0,0,1,13|46,5,0,0,0,0,1,4|47,5,0,0,0,0,1,5|48,2,0,0,0,0,1,11|49,2,0,0,0,0,1,7|50,5,0,0,0,0,1,13|51,2,0,0,0,0,1,1|52,1,0,0,0,0,1,13|53,3,0,0,0,0,1,12|54,3,0,0,0,0,1,8|55,4,0,0,0,0,1,5|56,4,0,0,0,0,1,12|57,4,0,0,0,0,1,3|58,1,0,0,0,0,1,12|59,1,0,0,0,0,1,10|60,4,0,0,0,0,1,17|61,3,0,0,0,0,1,11|62,4,0,0,0,0,1,17|63,3,0,0,0,0,1,18|64,2,0,0,0,0,1,18|65,4,0,0,0,0,1,1|66,5,0,0,0,0,1,1|67,1,0,0,0,0,1,13|68,5,0,0,0,0,1,3|69,1,0,0,0,0,1,11|70,4,0,0,0,0,1,8|71,1,0,0,0,0,1,16|72,3,0,0,0,0,1,7|73,2,0,0,0,0,1,8|74,3,0,0,0,0,1,9|75,3,0,0,0,0,1,5|76,5,0,0,0,0,1,5|77,2,0,0,0,0,1,7|78,2,0,0,0,0,1,6|79,1,0,0,0,0,1,10|80,1,0,0,0,0,1,15|81,2,0,0,0,0,1,11|82,1,0,0,0,0,1,12|83,3,0,0,0,0,1,14|84,4,0,0,0,0,1,8|85,1,0,0,0,0,1,11|86,4,0,0,0,0,1,18|87,5,0,0,0,0,1,12|88,5,0,0,0,0,1,15|89,3,0,0,0,0,1,3|90,3,0,0,0,0,1,6|91,2,0,0,0,0,1,5|92,4,0,0,0,0,1,8|93,2,0,0,0,0,1,9|94,1,0,0,0,0,1,16|95,5,0,0,0,0,1,18|96,1,0,0,0,0,1,5|97,1,0,0,0,0,1,8|98,3,0,0,0,0,1,2|99,3,0,0,0,0,1,11|100,1,0,0,0,0,1,14|101,4,0,0,0,0,1,6|102,5,0,0,0,0,1,18|103,3,0,0,0,0,1,16|104,2,0,0,0,0,1,5|105,5,0,0,0,0,1,6|106,4,0,0,0,0,1,18|107,3,0,0,0,0,1,4|108,5,0,0,0,0,1,15|109,4,0,0,0,0,1,12|110,1,0,0,0,0,1,16|111,5,0,0,0,0,1,6|112,3,0,0,0,0,1,8|113,3,0,0,0,0,1,5|114,5,0,0,0,0,1,18|115,4,0,0,0,0,1,12|116,3,0,0,0,0,1,1|117,5,0,0,0,0,1,11|118,4,0,0,0,0,1,1|119,5,0,0,0,0,1,18|120,1,0,0,0,0,1,1|121,3,0,0,0,0,1,15|122,1,0,0,0,0,1,5|123,2,0,0,0,0,1,16|124,4,0,0,0,0,1,4|125,5,0,0,0,0,1,12|126,4,0,0,0,0,1,11|127,5,0,0,0,0,1,2|128,5,0,0,0,0,1,6|129,5,0,0,0,0,1,2|130,2,0,0,0,0,1,4|131,4,0,0,0,0,1,2|132,3,0,0,0,0,1,16|133,2,0,0,0,0,1,3|134,5,0,0,0,0,1,9|135,4,0,0,0,0,1,16|136,3,0,0,0,0,1,3|137,4,0,0,0,0,1,15|138,3,0,0,0,0,1,8|139,5,0,0,0,0,1,4|140,2,0,0,0,0,1,1|141,5,0,0,0,0,1,16|142,5,0,0,0,0,1,12|143,5,0,0,0,0,1,5|144,3,0,0,0,0,1,9|145,3,0,0,0,0,1,4|146,1,0,0,0,0,1,12|147,5,0,0,0,0,1,15|148,5,0,0,0,0,1,15|149,2,0,0,0,0,1,14|150,1,0,0,0,0,1,5|151,1,0,0,0,0,1,13|152,2,0,0,0,0,1,18|153,4,0,0,0,0,1,18|154,1,0,0,0,0,1,4|155,1,0,0,0,0,1,4|156,2,0,0,0,0,1,17|157,5,0,0,0,0,1,16|158,4,0,0,0,0,1,10|159,4,0,0,0,0,1,7|160,1,0,0,0,0,1,5|161,5,0,0,0,0,1,18|162,2,0,0,0,0,1,6|163,3,0,0,0,0,1,4|164,2,0,0,0,0,1,7|165,1,0,0,0,0,1,14|166,5,0,0,0,0,1,15|167,5,0,0,0,0,1,12|168,2,0,0,0,0,1,1|169,5,0,0,0,0,1,17|170,5,0,0,0,0,1,6|171,5,0,0,0,0,1,13|172,4,0,0,0,0,1,11|173,1,0,0,0,0,1,5|174,4,0,0,0,0,1,18|175,4,0,0,0,0,1,3|176,4,0,0,0,0,1,1|177,3,0,0,0,0,1,8|178,5,0,0,0,0,1,18|179,1,0,0,0,0,1,11|180,4,0,0,0,0,1,15|181,5,0,0,0,0,1,18|182,5,0,0,0,0,1,14|183,4,0,0,0,0,1,4|184,3,0,0,0,0,1,4|185,3,0,0,0,0,1,8|186,3,0,0,0,0,1,5|187,1,0,0,0,0,1,13|188,1,0,0,0,0,1,3|189,5,0,0,0,0,1,10|190,1,0,0,0,0,1,11|191,2,0,0,0,0,1,11|192,2,0,0,0,0,1,17|193,5,0,0,0,0,1,14|194,4,0,0,0,0,1,9|195,2,0,0,0,0,1,2|196,2,0,0,0,0,1,9|197,1,0,0,0,0,1,3|198,2,0,0,0,0,1,15|199,4,0,0,0,0,1,2|200,3,0,0,0,0,1,16|201,3,0,0,0,0,1,17|202,5,0,0,0,0,1,6|203,4,0,0,0,0,1,13|204,2,0,0,0,0,1,4|205,3,0,0,0,0,1,2|206,4,0,0,0,0,1,8|207,3,0,0,0,0,1,3|208,1,0,0,0,0,1,12|209,4,0,0,0,0,1,12|210,1,0,0,0,0,1,16|211,2,0,0,0,0,1,3|212,3,0,0,0,0,1,1|213,1,0,0,0,0,1,10|214,2,0,0,0,0,1,12|215,4,0,0,0,0,1,18|216,5,0,0,0,0,1,3|217,2,0,0,0,0,1,12|218,4,0,0,0,0,1,3|219,5,0,0,0,0,1,14|220,5,0,0,0,0,1,12|221,3,0,0,0,0,1,13|222,2,0,0,0,0,1,10|223,2,0,0,0,0,1,13|224,3,0,0,0,0,1,6|225,3,0,0,0,0,1,15|226,5,0,0,0,0,1,11|227,5,0,0,0,0,1,9|228,1,0,0,0,0,1,2|229,3,0,0,0,0,1,6|230,5,0,0,0,0,1,1|231,2,0,0,0,0,1,16|232,5,0,0,0,0,1,14|233,1,0,0,0,0,1,13|234,2,0,0,0,0,1,3|235,4,0,0,0,0,1,11|236,1,0,0,0,0,1,15|237,5,0,0,0,0,1,1|238,1,0,0,0,0,1,11|239,4,0,0,0,0,1,14|240,2,0,0,0,0,1,18|241,2,0,0,0,0,1,7|242,4,0,0,0,0,1,5|243,2,0,0,0,0,1,3|244,4,0,0,0,0,1,1|245,1,0,0,0,0,1,13|246,4,0,0,0,0,1,1|247,5,0,0,0,0,1,14|248,2,0,0,0,0,1,7|249,5,0,0,0,0,1,10|250,2,0,0,0,0,1,11|251,3,0,0,0,0,1,6|252,2,0,0,0,0,1,15|253,2,0,0,0,0,1,4|254,2,0,0,0,0,1,11|255,1,0,0,0,0,1,12|256,2,0,0,0,0,1,6|257,4,0,0,0,0,1,11|258,1,0,0,0,0,1,18|259,3,0,0,0,0,1,7|260,2,0,0,0,0,1,10|261,5,0,0,0,0,1,16|262,1,0,0,0,0,1,4|263,4,0,0,0,0,1,10|264,2,0,0,0,0,1,8|265,5,0,0,0,0,1,15|266,4,0,0,0,0,1,3|267,3,0,0,0,0,1,17|268,2,0,0,0,0,1,16|269,5,0,0,0,0,1,7|270,4,0,0,0,0,1,3|271,1,0,0,0,0,1,15|272,2,0,0,0,0,1,14|273,2,0,0,0,0,1,5|274,4,0,0,0,0,1,6|275,5,0,0,0,0,1,7|276,3,0,0,0,0,1,17|277,2,0,0,0,0,1,13|278,2,0,0,0,0,1,9|279,3,0,0,0,0,1,3|280,1,0,0,0,0,1,3|281,2,0,0,0,0,1,17|282,1,0,0,0,0,1,11|283,4,0,0,0,0,1,7|284,5,0,0,0,0,1,9|285,1,0,0,0,0,1,12|286,4,0,0,0,0,1,10|287,3,0,0,0,0,1,17|288,5,0,0,0,0,1,9|289,1,0,0,0,0,1,14|290,2,0,0,0,0,1,13|291,5,0,0,0,0,1,13|292,3,0,0,0,0,1,13|293,1,0,0,0,0,1,8|294,5,0,0,0,0,1,7|295,4,0,0,0,0,1,1|296,3,0,0,0,0,1,2|297,3,0,0,0,0,1,17|298,2,0,0,0,0,1,3|299,3,0,0,0,0,1,9|300,2,0,0,0,0,1,8|301,3,0,0,0,0,1,18|302,4,0,0,0,0,1,2|303,3,0,0,0,0,1,1|304,5,0,0,0,0,1,1|305,3,0,0,0,0,1,9|306,1,0,0,0,0,1,8|307,1,0,0,0,0,1,6|308,4,0,0,0,0,1,1|309,3,0,0,0,0,1,7|310,1,0,0,0,0,1,1|311,2,0,0,0,0,1,4|312,1,0,0,0,0,1,14|313,2,0,0,0,0,1,18|314,4,0,0,0,0,1,6|315,4,0,0,0,0,1,16|316,4,0,0,0,0,1,6|317,3,0,0,0,0,1,16|318,2,0,0,0,0,1,12|319,5,0,0,0,0,1,5|320,1,0,0,0,0,1,17|321,5,0,0,0,0,1,2|322,1,0,0,0,0,1,4|323,4,0,0,0,0,1,10|324,5,0,0,0,0,1,7|325,3,0,0,0,0,1,18|326,4,0,0,0,0,1,10|327,4,0,0,0,0,1,4|328,1,0,0,0,0,1,16|329,5,0,0,0,0,1,5|330,5,0,0,0,0,1,8|331,5,0,0,0,0,1,14|332,5,0,0,0,0,1,14|333,2,0,0,0,0,1,3|334,3,0,0,0,0,1,5|335,1,0,0,0,0,1,2|336,5,0,0,0,0,1,5|337,1,0,0,0,0,1,9|338,2,0,0,0,0,1,2|339,2,0,0,0,0,1,12|340,4,0,0,0,0,1,5|341,1,0,0,0,0,1,13|342,1,0,0,0,0,1,2|343,3,0,0,0,0,1,17|344,4,0,0,0,0,1,11|345,2,0,0,0,0,1,10|346,4,0,0,0,0,1,3|347,2,0,0,0,0,1,14|348,4,0,0,0,0,1,1|349,1,0,0,0,0,1,13|350,4,0,0,0,0,1,14|351,1,0,0,0,0,1,13|352,4,0,0,0,0,1,9|353,5,0,0,0,0,1,12|354,1,0,0,0,0,1,4|355,5,0,0,0,0,1,14|356,3,0,0,0,0,1,12|357,5,0,0,0,0,1,2|358,4,0,0,0,0,1,4|359,4,0,0,0,0,1,1|360,4,0,0,0,0,1,9|361,1,0,0,0,0,1,9|362,5,0,0,0,0,1,16|363,3,0,0,0,0,1,4|364,1,0,0,0,0,1,3|365,5,0,0,0,0,1,7|366,4,0,0,0,0,1,12|367,4,0,0,0,0,1,15|368,1,0,0,0,0,1,4|369,3,0,0,0,0,1,18|370,5,0,0,0,0,1,18|371,5,0,0,0,0,1,16|372,1,0,0,0,0,1,18|373,4,0,0,0,0,1,14|374,5,0,0,0,0,1,3|375,2,0,0,0,0,1,15|376,1,0,0,0,0,1,16|377,4,0,0,0,0,1,17|378,3,0,0,0,0,1,2|379,1,0,0,0,0,1,18|380,2,0,0,0,0,1,10|381,4,0,0,0,0,1,14|382,3,0,0,0,0,1,8|383,2,0,0,0,0,1,2|384,1,0,0,0,0,1,13|385,5,0,0,0,0,1,18|386,3,0,0,0,0,1,8|387,1,0,0,0,0,1,16|388,2,0,0,0,0,1,9|389,5,0,0,0,0,1,15|390,2,0,0,0,0,1,12|391,5,0,0,0,0,1,16|392,3,0,0,0,0,1,9|393,3,0,0,0,0,1,13|394,4,0,0,0,0,1,5|395,5,0,0,0,0,1,8|396,5,0,0,0,0,1,14|397,4,0,0,0,0,1,8|398,1,0,0,0,0,1,8|399,4,0,0,0,0,1,9|400,3,0,0,0,0,1,5|401,5,0,0,0,0,1,17|402,3,0,0,0,0,1,15|403,1,0,0,0,0,1,10|404,5,0,0,0,0,1,11|405,1,0,0,0,0,1,6|406,2,0,0,0,0,1,15|407,4,0,0,0,0,1,9|408,4,0,0,0,0,1,16|409,5,0,0,0,0,1,11|410,4,0,0,0,0,1,4|411,1,0,0,0,0,1,16|412,1,0,0,0,0,1,10|413,3,0,0,0,0,1,11|414,4,0,0,0,0,1,17|415,4,0,0,0,0,1,9|416,5,0,0,0,0,1,10|417,3,0,0,0,0,1,4|418,2,0,0,0,0,1,3|419,5,0,0,0,0,1,10|420,4,0,0,0,0,1,14|421,2,0,0,0,0,1,10|422,4,0,0,0,0,1,8|423,2,0,0,0,0,1,4|424,5,0,0,0,0,1,7|425,3,0,0,0,0,1,16|426,5,0,0,0,0,1,5|427,3,0,0,0,0,1,2|428,2,0,0,0,0,1,2|429,1,0,0,0,0,1,13|430,5,0,0,0,0,1,10|431,1,0,0,0,0,1,2|432,5,0,0,0,0,1,12|433,4,0,0,0,0,1,6|434,3,0,0,0,0,1,18|435,3,0,0,0,0,1,7|436,3,0,0,0,0,1,7|437,5,0,0,0,0,1,7|438,3,0,0,0,0,1,7|439,5,0,0,0,0,1,18|440,3,0,0,0,0,1,11|441,3,0,0,0,0,1,10|442,4,0,0,0,0,1,7|443,1,0,0,0,0,1,14|444,1,0,0,0,0,1,10|445,1,0,0,0,0,1,17|446,4,0,0,0,0,1,10|447,1,0,0,0,0,1,15|448,4,0,0,0,0,1,8|449,5,0,0,0,0,1,8|450,3,0,0,0,0,1,4|451,2,0,0,0,0,1,9|452,2,0,0,0,0,1,3|453,3,0,0,0,0,1,2|454,1,0,0,0,0,1,5|455,4,0,0,0,0,1,17|456,2,0,0,0,0,1,16|457,3,0,0,0,0,1,14|458,4,0,0,0,0,1,14|459,3,0,0,0,0,1,18|460,3,0,0,0,0,1,9|461,3,0,0,0,0,1,8|462,3,0,0,0,0,1,11|463,2,0,0,0,0,1,15|464,3,0,0,0,0,1,13|465,2,0,0,0,0,1,9|466,4,0,0,0,0,1,13|467,2,0,0,0,0,1,16|468,1,0,0,0,0,1,18|469,3,0,0,0,0,1,11|470,1,0,0,0,0,1,7|471,3,0,0,0,0,1,17|472,3,0,0,0,0,1,8|473,3,0,0,0,0,1,17|474,4,0,0,0,0,1,11|475,5,0,0,0,0,1,7|476,3,0,0,0,0,1,9|477,5,0,0,0,0,1,9|478,5,0,0,0,0,1,15|479,1,0,0,0,0,1,4|480,5,0,0,0,0,1,7|481,2,0,0,0,0,1,18|482,1,0,0,0,0,1,1|483,4,0,0,0,0,1,9|484,2,0,0,0,0,1,17|485,2,0,0,0,0,1,16|486,1,0,0,0,0,1,4|487,2,0,0,0,0,1,6|488,2,0,0,0,0,1,6|489,2,0,0,0,0,1,17|490,1,0,0,0,0,1,16|491,3,0,0,0,0,1,16|492,3,0,0,0,0,1,2|493,2,0,0,0,0,1,15|494,2,0,0,0,0,1,16|495,2,0,0,0,0,1,15|496,4,0,0,0,0,1,14|497,5,0,0,0,0,1,14|498,1,0,0,0,0,1,15|499,5,0,0,0,0,1,6|500,4,0,0,0,0,1,17|501,2,0,0,0,0,1,13|502,2,0,0,0,0,1,8|503,1,0,0,0,0,1,7|504,4,0,0,0,0,1,6|505,1,0,0,0,0,1,9|506,5,0,0,0,0,1,5|507,5,0,0,0,0,1,3|508,5,0,0,0,0,1,13|509,2,0,0,0,0,1,11|510,4,0,0,0,0,1,10|511,3,0,0,0,0,1,16|512,5,0,0,0,0,1,7|513,2,0,0,0,0,1,1|514,2,0,0,0,0,1,14|515,3,0,0,0,0,1,10|516,3,0,0,0,0,1,2|517,2,0,0,0,0,1,16|518,1,0,0,0,0,1,14|519,5,0,0,0,0,1,13|520,2,0,0,0,0,1,4|521,5,0,0,0,0,1,1|522,5,0,0,0,0,1,8|523,4,0,0,0,0,1,3|524,2,0,0,0,0,1,3|525,2,0,0,0,0,1,5|526,1,0,0,0,0,1,6|527,3,0,0,0,0,1,1|528,2,0,0,0,0,1,17|529,1,0,0,0,0,1,15|530,3,0,0,0,0,1,4|531,1,0,0,0,0,1,7|532,3,0,0,0,0,1,10|533,5,0,0,0,0,1,13|534,1,0,0,0,0,1,17|535,3,0,0,0,0,1,1|536,4,0,0,0,0,1,1|537,4,0,0,0,0,1,8|538,3,0,0,0,0,1,5|539,1,0,0,0,0,1,2|540,1,0,0,0,0,1,16|541,4,0,0,0,0,1,17|542,2,0,0,0,0,1,11|543,2,0,0,0,0,1,11|544,1,0,0,0,0,1,15|545,1,0,0,0,0,1,6|546,5,0,0,0,0,1,10|547,4,0,0,0,0,1,18|548,4,0,0,0,0,1,17|549,3,0,0,0,0,1,14|550,5,0,0,0,0,1,3|551,5,0,0,0,0,1,18|552,4,0,0,0,0,1,5|553,1,0,0,0,0,1,15|554,3,0,0,0,0,1,2|555,4,0,0,0,0,1,7|556,5,0,0,0,0,1,13|557,1,0,0,0,0,1,15|558,3,0,0,0,0,1,7|559,2,0,0,0,0,1,2|560,2,0,0,0,0,1,17|561,3,0,0,0,0,1,14|562,4,0,0,0,0,1,3|563,5,0,0,0,0,1,2|564,4,0,0,0,0,1,16|565,3,0,0,0,0,1,4|566,3,0,0,0,0,1,6|567,4,0,0,0,0,1,10|568,1,0,0,0,0,1,6|569,4,0,0,0,0,1,8|570,2,0,0,0,0,1,14|571,2,0,0,0,0,1,2|572,1,0,0,0,0,1,10|573,2,0,0,0,0,1,6|574,2,0,0,0,0,1,12|575,5,0,0,0,0,1,8|576,4,0,0,0,0,1,10|577,4,0,0,0,0,1,7|578,2,0,0,0,0,1,3|579,3,0,0,0,0,1,12|580,2,0,0,0,0,1,10|581,3,0,0,0,0,1,16|582,3,0,0,0,0,1,8|583,5,0,0,0,0,1,15|584,1,0,0,0,0,1,6|585,5,0,0,0,0,1,4|586,1,0,0,0,0,1,1|587,2,0,0,0,0,1,18|588,5,0,0,0,0,1,1|589,2,0,0,0,0,1,1|590,1,0,0,0,0,1,1|591,3,0,0,0,0,1,14|592,4,0,0,0,0,1,1|593,5,0,0,0,0,1,5|594,5,0,0,0,0,1,17|595,1,0,0,0,0,1,18|596,3,0,0,0,0,1,5|597,4,0,0,0,0,1,16|598,1,0,0,0,0,1,15|599,1,0,0,0,0,1,14|600,2,0,0,0,0,1,17|601,5,0,0,0,0,1,1|602,4,0,0,0,0,1,5|603,1,0,0,0,0,1,2|604,4,0,0,0,0,1,11|605,5,0,0,0,0,1,13|606,2,0,0,0,0,1,13|607,1,0,0,0,0,1,11|608,3,0,0,0,0,1,12|609,4,0,0,0,0,1,1|610,4,0,0,0,0,1,7|611,2,0,0,0,0,1,12|612,4,0,0,0,0,1,5|613,4,0,0,0,0,1,7|614,4,0,0,0,0,1,2|615,2,0,0,0,0,1,10|616,3,0,0,0,0,1,8|617,2,0,0,0,0,1,5|618,5,0,0,0,0,1,9|619,3,0,0,0,0,1,13|620,2,0,0,0,0,1,11|621,5,0,0,0,0,1,10|622,3,0,0,0,0,1,15|623,3,0,0,0,0,1,9|624,1,0,0,0,0,1,12|625,5,0,0,0,0,1,6|626,5,0,0,0,0,1,9|627,3,0,0,0,0,1,8|628,4,0,0,0,0,1,18|629,1,0,0,0,0,1,7|630,2,0,0,0,0,1,12|631,1,0,0,0,0,1,18|632,4,0,0,0,0,1,7|633,1,0,0,0,0,1,17|634,2,0,0,0,0,1,4|635,3,0,0,0,0,1,13|636,2,0,0,0,0,1,6|637,3,0,0,0,0,1,17|638,1,0,0,0,0,1,5|639,5,0,0,0,0,1,6|640,3,0,0,0,0,1,15|641,1,0,0,0,0,1,13|642,1,0,0,0,0,1,4|643,1,0,0,0,0,1,13|644,2,0,0,0,0,1,1|645,4,0,0,0,0,1,12|646,4,0,0,0,0,1,10|647,4,0,0,0,0,1,4|648,1,0,0,0,0,1,12|649,3,0,0,0,0,1,3|650,1,0,0,0,0,1,4|651,4,0,0,0,0,1,2|652,1,0,0,0,0,1,17|653,4,0,0,0,0,1,11|654,2,0,0,0,0,1,3|655,2,0,0,0,0,1,7|656,4,0,0,0,0,1,8|657,2,0,0,0,0,1,4|658,1,0,0,0,0,1,15|659,2,0,0,0,0,1,14|660,1,0,0,0,0,1,8|661,3,0,0,0,0,1,4|662,3,0,0,0,0,1,14|663,2,0,0,0,0,1,3|664,5,0,0,0,0,1,12|665,1,0,0,0,0,1,3|666,4,0,0,0,0,1,4|667,1,0,0,0,0,1,1|668,2,0,0,0,0,1,10|669,4,0,0,0,0,1,6|670,2,0,0,0,0,1,9|671,1,0,0,0,0,1,18|672,1,0,0,0,0,1,1|673,5,0,0,0,0,1,6|674,4,0,0,0,0,1,7|675,4,0,0,0,0,1,3|676,2,0,0,0,0,1,12|677,4,0,0,0,0,1,8|678,4,0,0,0,0,1,2|679,1,0,0,0,0,1,10|680,2,0,0,0,0,1,11|681,3,0,0,0,0,1,6|682,5,0,0,0,0,1,5|683,1,0,0,0,0,1,13|684,2,0,0,0,0,1,7|685,2,0,0,0,0,1,14|686,5,0,0,0,0,1,7|687,4,0,0,0,0,1,11|688,1,0,0,0,0,1,1|689,1,0,0,0,0,1,2|690,3,0,0,0,0,1,17|691,3,0,0,0,0,1,18|692,2,0,0,0,0,1,13|693,1,0,0,0,0,1,10|694,5,0,0,0,0,1,14|695,5,0,0,0,0,1,16|696,2,0,0,0,0,1,7|697,5,0,0,0,0,1,16|698,1,0,0,0,0,1,14|699,3,0,0,0,0,1,9|700,5,0,0,0,0,1,5|701,4,0,0,0,0,1,15|702,2,0,0,0,0,1,17|703,2,0,0,0,0,1,2|704,5,0,0,0,0,1,8|705,4,0,0,0,0,1,9|706,1,0,0,0,0,1,12|707,1,0,0,0,0,1,2|708,1,0,0,0,0,1,17|709,5,0,0,0,0,1,4|710,5,0,0,0,0,1,6|711,2,0,0,0,0,1,2|712,3,0,0,0,0,1,2|713,5,0,0,0,0,1,17|714,5,0,0,0,0,1,12|715,3,0,0,0,0,1,1|716,5,0,0,0,0,1,2|717,2,0,0,0,0,1,15|718,2,0,0,0,0,1,13|719,3,0,0,0,0,1,10|720,1,0,0,0,0,1,3|721,2,0,0,0,0,1,11|722,5,0,0,0,0,1,6|723,5,0,0,0,0,1,8|724,5,0,0,0,0,1,5|725,2,0,0,0,0,1,11|726,4,0,0,0,0,1,9|727,3,0,0,0,0,1,9|728,3,0,0,0,0,1,17|729,4,0,0,0,0,1,13|730,2,0,0,0,0,1,6|731,5,0,0,0,0,1,15|732,1,0,0,0,0,1,15|733,2,0,0,0,0,1,11|734,5,0,0,0,0,1,9|735,3,0,0,0,0,1,10|736,5,0,0,0,0,1,9|737,3,0,0,0,0,1,12|738,1,0,0,0,0,1,2|];
